SumColouring/JavaBacktracker/RandomInstances/20_0.80_1.col
c File: instances/20_0.80_1.col
c
c Description: Random graph of size 20 vertices and P(0.8000000000000002) of edges between any two vertices.
p col 20 190
e 1 2
e 1 3
e 1 4
e 1 5
e 1 7
e 1 9
e 1 10
e 1 11
e 1 12
e 1 14
e 1 15
e 1 16
e 1 17
e 1 18
e 1 19
e 1 20
e 2 3
e 2 5
e 2 7
e 2 9
e 2 10
e 2 11
e 2 12
e 2 13
e 2 14
e 2 15
e 2 16
e 2 18
e 2 19
e 2 20
e 3 4
e 3 5
e 3 6
e 3 7
e 3 8
e 3 9
e 3 10
e 3 11
e 3 12
e 3 13
e 3 14
e 3 15
e 3 16
e 3 18
e 3 19
e 3 20
e 4 6
e 4 7
e 4 8
e 4 9
e 4 10
e 4 13
e 4 14
e 4 16
e 4 17
e 4 18
e 5 8
e 5 9
e 5 11
e 5 12
e 5 13
e 5 14
e 5 15
e 5 17
e 5 18
e 5 19
e 5 20
e 6 7
e 6 10
e 6 11
e 6 13
e 6 15
e 6 16
e 6 17
e 6 18
e 6 19
e 6 20
e 7 8
e 7 9
e 7 10
e 7 11
e 7 12
e 7 14
e 7 16
e 7 19
e 7 20
e 8 9
e 8 10
e 8 11
e 8 12
e 8 13
e 8 15
e 8 17
e 8 18
e 8 19
e 8 20
e 9 11
e 9 12
e 9 14
e 9 15
e 9 16
e 9 17
e 9 18
e 9 19
e 9 20
e 10 11
e 10 12
e 10 16
e 10 17
e 10 18
e 10 19
e 10 20
e 11 12
e 11 15
e 11 16
e 11 18
e 11 19
e 11 20
e 12 13
e 12 15
e 12 16
e 12 17
e 12 18
e 12 20
e 13 15
e 13 16
e 13 17
e 13 18
e 14 16
e 15 16
e 15 17
e 15 18
e 15 19
e 16 17
e 16 18
e 16 19
e 17 18
e 17 20
e 18 19
e 18 20
e 19 20